beginners/examples/fields.out.smt2
sat
(
(define-fun x () (_ FiniteField 13) #f4m13)
(define-fun y () (_ FiniteField 13) #f10m13)
)
