beginners/examples/fields.smt2
(set-logic QF_FF)
(set-option :produce-models true)

(define-sort F () (_ FiniteField 13))  ; F is an alias of sort (_ FiniteField 13)

(declare-const x F)
(declare-const y F)

(assert (= (ff.add x y) (as ff1 F)))
(assert (= (ff.mul x y) (as ff1 F)))

(check-sat)
(get-model)
